1 -1 -2 0
1 -1 3 0
1 -1 -4 0
1 -2 -5 0
1 2 6 0
1 -7 8 0
1 -7 9 0
1 10 11 0
1 9 12 0
1 -6 13 0
1 6 14 0
1 6 2 0
1 -6 12 0
1 -6 1 0
1 -3 15 0
1 3 16 0
1 3 -17 0
1 4 16 0
1 -4 -17 0
1 4 -18 0
1 4 -1 0
1 4 -19 0
1 12 20 0
1 -12 -9 0
1 14 -20 0
1 14 -16 0
1 14 9 0
1 -14 6 0
1 21 -11 0
1 21 -22 0
1 -21 17 0
1 -21 -23 0
1 21 -6 0
1 24 -20 0
1 24 -9 0
1 -24 11 0
1 24 22 0
1 -24 -6 0
1 -11 -25 0
1 11 -8 0
1 -11 -10 0
1 11 26 0
1 11 -27 0
1 -11 -12 0
1 -8 -10 0
1 8 -28 0
1 8 11 0
1 8 -12 0
1 -29 -20 0
1 -29 15 0
1 -29 -28 0
1 -29 30 0
1 29 -31 0
1 -29 12 0
1 -29 -7 0
1 20 32 0
1 -20 -10 0
1 -20 21 0
1 26 -25 0
1 -26 -33 0
1 -25 15 0
1 25 -33 0
1 -25 11 0
1 25 22 0
1 -34 35 0
1 34 -36 0
1 34 11 0
1 37 -8 0
1 23 -24 0
1 23 34 0
1 23 26 0
1 -35 24 0
1 -35 -34 0
1 35 -26 0
1 22 37 0
1 -22 25 0
1 22 24 0
1 22 -38 0
1 22 -34 0
1 -22 -39 0
1 33 24 0
1 -33 38 0
1 -33 21 0
1 -33 39 0
1 40 41 0
1 40 5 0
1 -5 42 0
1 5 43 0
1 44 -45 0
1 -46 42 0
1 -46 45 0
1 -43 47 0
1 43 -16 0
1 -43 -46 0
1 43 -5 0
1 43 17 0
1 43 40 0
1 -41 -44 0
1 42 -41 0
1 -42 -48 0
1 42 -40 0
1 -18 49 0
1 -18 16 0
1 16 18 0
1 -17 50 0
1 17 -3 0
1 17 -43 0
1 -17 -51 0
1 -17 -4 0
1 -47 -45 0
1 52 32 0
1 52 16 0
1 -52 53 0
1 52 31 0
1 -52 -18 0
1 54 16 0
1 54 -55 0
1 -54 -18 0
1 -49 47 0
1 -49 56 0
1 -49 -46 0
1 49 53 0
1 -49 44 0
1 45 53 0
1 -45 18 0
1 -31 52 0
1 -31 -50 0
1 31 29 0
1 -31 57 0
1 -15 -3 0
1 15 31 0
1 15 54 0
1 15 -6 0
1 -36 32 0
1 36 -50 0
1 36 -58 0
1 -36 -29 0
1 -36 -54 0
1 -36 -57 0
1 32 -50 0
1 -32 36 0
1 -59 -60 0
1 -59 28 0
1 -59 -36 0
1 59 61 0
1 51 -32 0
1 -51 47 0
1 -51 -62 0
1 -51 36 0
1 51 -17 0
1 51 61 0
1 -50 -32 0
1 -50 -15 0
1 50 63 0
1 -50 36 0
1 50 -57 0
1 50 -64 0
1 57 65 0
1 -57 -47 0
1 -57 66 0
1 -57 67 0
1 57 -17 0
1 57 68 0
1 -57 -64 0
1 -28 -33 0
1 -28 -59 0
1 -28 69 0
1 -69 65 0
1 69 -19 0
1 62 -13 0
1 -61 -70 0
1 61 -71 0
1 61 -33 0
1 61 -72 0
1 61 22 0
1 -61 73 0
1 -58 -62 0
1 -58 -74 0
1 58 61 0
1 -58 -69 0
1 13 75 0
1 13 28 0
1 -13 -76 0
1 -13 39 0
1 -13 -69 0
1 -72 77 0
1 -72 -78 0
1 72 76 0
1 -72 19 0
1 19 72 0
1 19 28 0
1 -19 -4 0
1 -19 -79 0
1 -19 -69 0
1 -38 66 0
1 -38 30 0
1 -38 -39 0
1 -39 13 0
1 -39 -33 0
1 39 -35 0
1 39 -58 0
1 -39 30 0
1 -39 -23 0
1 39 -64 0
1 75 13 0
1 75 -70 0
1 -75 58 0
1 75 30 0
1 -75 27 0
1 -74 27 0
1 -27 75 0
1 27 -11 0
1 27 74 0
1 71 -8 0
1 71 -80 0
1 -71 81 0
1 -71 75 0
1 -30 75 0
1 30 38 0
1 -30 76 0
1 -70 20 0
1 -70 -77 0
1 -70 -61 0
1 81 -71 0
1 -81 82 0
1 81 -83 0
1 82 81 0
1 80 71 0
1 80 -84 0
1 80 85 0
1 80 -86 0
1 80 -87 0
1 -80 -88 0
1 87 71 0
1 87 -27 0
1 87 -89 0
1 -87 -88 0
1 -83 -80 0
1 -83 81 0
1 -83 -86 0
1 -86 -80 0
1 86 -83 0
1 -88 -81 0
1 88 -75 0
1 88 -74 0
1 84 80 0
1 -84 75 0
1 84 82 0
1 53 90 0
1 -53 -50 0
1 -53 45 0
1 53 -54 0
1 -53 57 0
1 -65 -53 0
1 -65 48 0
1 -65 -57 0
1 67 -91 0
1 67 -56 0
1 -67 -62 0
1 -67 48 0
1 67 -73 0
1 -73 -48 0
1 -73 92 0
1 -73 -57 0
1 91 78 0
1 91 -67 0
1 -91 79 0
1 -92 -65 0
1 -92 -91 0
1 92 -67 0
1 90 -53 0
1 -90 -73 0
1 -48 65 0
1 -48 -90 0
1 48 -73 0
1 -66 -93 0
1 66 -72 0
1 -66 -92 0
1 66 -57 0
1 -64 -91 0
1 -64 59 0
1 64 -39 0
1 -78 75 0
1 -78 -92 0
1 -79 -93 0
1 79 -78 0
1 -79 63 0
1 79 -94 0
1 -79 -55 0
1 -79 19 0
1 93 55 0
1 93 77 0
1 -93 -66 0
1 -93 -73 0
1 -55 85 0
1 55 -54 0
1 -55 76 0
1 -56 -94 0
1 -56 79 0
1 -56 64 0
1 94 -45 0
1 -94 -79 0
1 -94 73 0
1 77 -63 0
1 -77 -60 0
1 77 72 0
1 77 58 0
1 -77 -30 0
1 -76 13 0
1 -76 58 0
1 -76 82 0
1 76 -55 0
1 76 -68 0
1 -76 -19 0
1 85 -93 0
1 85 -60 0
1 85 30 0
1 85 55 0
1 85 68 0
1 -89 -93 0
1 89 -63 0
1 -89 60 0
1 89 -55 0
1 -89 -95 0
1 60 76 0
1 95 -85 0
1 95 -60 0
1 95 -51 0
1 63 68 0
1 -63 77 0
1 63 -89 0
1 68 -89 0
1 -68 57 0
